1600 3120
1 2 1
1 41 2
2 3 1
2 42 4
3 4 1
3 43 2
4 5 2
4 44 5
5 6 2
5 45 3
6 7 1
6 46 5
7 8 1
7 47 1
8 9 2
8 48 5
9 10 2
9 49 5
10 11 1
10 50 5
11 12 1
11 51 2
12 13 3
12 52 1
13 14 4
13 53 1
14 15 2
14 54 1
15 16 5
15 55 3
16 17 1
16 56 2
17 18 1
17 57 5
18 19 2
18 58 1
19 20 5
19 59 4
20 21 1
20 60 5
21 22 5
21 61 2
22 23 5
22 62 2
23 24 3
23 63 4
24 25 2
24 64 1
25 26 5
25 65 2
26 27 5
26 66 4
27 28 3
27 67 2
28 29 1
28 68 4
29 30 1
29 69 3
30 31 1
30 70 1
31 32 4
31 71 4
32 33 1
32 72 1
33 34 2
33 73 2
34 35 5
34 74 2
35 36 2
35 75 3
36 37 2
36 76 2
37 38 4
37 77 3
38 39 2
38 78 2
39 40 3
39 79 3
40 80 2
41 42 4
41 81 1
42 43 3
42 82 2
43 44 2
43 83 4
44 45 2
44 84 3
45 46 3
45 85 5
46 47 5
46 86 2
47 48 5
47 87 4
48 49 3
48 88 2
49 50 2
49 89 3
50 51 3
50 90 1
51 52 2
51 91 1
52 53 5
52 92 1
53 54 1
53 93 1
54 55 5
54 94 4
55 56 5
55 95 1
56 57 5
56 96 2
57 58 3
57 97 4
58 59 5
58 98 5
59 60 5
59 99 3
60 61 5
60 100 5
61 62 2
61 101 2
62 63 5
62 102 5
63 64 2
63 103 5
64 65 1
64 104 2
65 66 4
65 105 5
66 67 4
66 106 1
67 68 4
67 107 4
68 69 3
68 108 5
69 70 3
69 109 3
70 71 5
70 110 3
71 72 1
71 111 4
72 73 5
72 112 5
73 74 2
73 113 2
74 75 2
74 114 3
75 76 4
75 115 4
76 77 5
76 116 3
77 78 1
77 117 2
78 79 1
78 118 1
79 80 4
79 119 2
80 120 2
81 82 2
81 121 3
82 83 5
82 122 4
83 84 2
83 123 3
84 85 2
84 124 3
85 86 1
85 125 5
86 87 2
86 126 1
87 88 2
87 127 1
88 89 1
88 128 3
89 90 3
89 129 3
90 91 3
90 130 4
91 92 2
91 131 1
92 93 5
92 132 3
93 94 1
93 133 2
94 95 3
94 134 2
95 96 2
95 135 1
96 97 1
96 136 3
97 98 4
97 137 2
98 99 2
98 138 2
99 100 3
99 139 2
100 101 5
100 140 1
101 102 1
101 141 2
102 103 3
102 142 1
103 104 2
103 143 2
104 105 2
104 144 4
105 106 5
105 145 4
106 107 1
106 146 5
107 108 1
107 147 4
108 109 2
108 148 4
109 110 3
109 149 3
110 111 3
110 150 3
111 112 2
111 151 5
112 113 4
112 152 4
113 114 1
113 153 3
114 115 2
114 154 3
115 116 4
115 155 5
116 117 3
116 156 2
117 118 5
117 157 1
118 119 5
118 158 4
119 120 4
119 159 5
120 160 3
121 122 5
121 161 4
122 123 5
122 162 4
123 124 4
123 163 4
124 125 4
124 164 2
125 126 4
125 165 4
126 127 1
126 166 3
127 128 1
127 167 5
128 129 5
128 168 1
129 130 1
129 169 1
130 131 3
130 170 2
131 132 3
131 171 1
132 133 1
132 172 3
133 134 2
133 173 5
134 135 2
134 174 5
135 136 2
135 175 1
136 137 1
136 176 5
137 138 1
137 177 3
138 139 4
138 178 2
139 140 3
139 179 3
140 141 2
140 180 4
141 142 2
141 181 2
142 143 2
142 182 2
143 144 3
143 183 4
144 145 5
144 184 3
145 146 1
145 185 5
146 147 4
146 186 1
147 148 3
147 187 3
148 149 5
148 188 3
149 150 1
149 189 4
150 151 4
150 190 5
151 152 5
151 191 4
152 153 4
152 192 5
153 154 1
153 193 1
154 155 1
154 194 3
155 156 3
155 195 3
156 157 5
156 196 5
157 158 1
157 197 5
158 159 4
158 198 4
159 160 2
159 199 4
160 200 3
161 162 3
161 201 4
162 163 2
162 202 5
163 164 2
163 203 5
164 165 4
164 204 3
165 166 2
165 205 2
166 167 4
166 206 3
167 168 4
167 207 1
168 169 5
168 208 3
169 170 4
169 209 5
170 171 5
170 210 2
171 172 5
171 211 3
172 173 1
172 212 4
173 174 1
173 213 1
174 175 2
174 214 2
175 176 1
175 215 1
176 177 1
176 216 1
177 178 5
177 217 5
178 179 2
178 218 3
179 180 1
179 219 5
180 181 5
180 220 2
181 182 2
181 221 3
182 183 3
182 222 5
183 184 1
183 223 2
184 185 4
184 224 1
185 186 1
185 225 5
186 187 5
186 226 2
187 188 1
187 227 1
188 189 2
188 228 3
189 190 2
189 229 3
190 191 3
190 230 3
191 192 3
191 231 5
192 193 4
192 232 1
193 194 5
193 233 3
194 195 1
194 234 5
195 196 2
195 235 1
196 197 2
196 236 3
197 198 5
197 237 5
198 199 1
198 238 5
199 200 5
199 239 4
200 240 4
201 202 2
201 241 1
202 203 5
202 242 2
203 204 3
203 243 1
204 205 2
204 244 4
205 206 3
205 245 3
206 207 5
206 246 2
207 208 1
207 247 4
208 209 5
208 248 5
209 210 5
209 249 3
210 211 1
210 250 4
211 212 1
211 251 5
212 213 3
212 252 2
213 214 3
213 253 4
214 215 3
214 254 5
215 216 2
215 255 3
216 217 3
216 256 4
217 218 5
217 257 4
218 219 4
218 258 2
219 220 2
219 259 5
220 221 2
220 260 1
221 222 4
221 261 2
222 223 3
222 262 3
223 224 3
223 263 3
224 225 3
224 264 2
225 226 3
225 265 5
226 227 1
226 266 2
227 228 3
227 267 1
228 229 1
228 268 4
229 230 3
229 269 1
230 231 4
230 270 5
231 232 4
231 271 5
232 233 4
232 272 4
233 234 1
233 273 4
234 235 2
234 274 2
235 236 3
235 275 2
236 237 2
236 276 3
237 238 2
237 277 2
238 239 3
238 278 2
239 240 5
239 279 3
240 280 4
241 242 1
241 281 3
242 243 3
242 282 3
243 244 3
243 283 2
244 245 4
244 284 3
245 246 3
245 285 2
246 247 1
246 286 5
247 248 1
247 287 3
248 249 5
248 288 4
249 250 3
249 289 3
250 251 2
250 290 1
251 252 2
251 291 2
252 253 3
252 292 1
253 254 4
253 293 2
254 255 3
254 294 4
255 256 5
255 295 5
256 257 1
256 296 5
257 258 3
257 297 3
258 259 1
258 298 4
259 260 2
259 299 4
260 261 1
260 300 4
261 262 2
261 301 2
262 263 3
262 302 1
263 264 4
263 303 3
264 265 1
264 304 3
265 266 1
265 305 4
266 267 3
266 306 5
267 268 2
267 307 3
268 269 4
268 308 4
269 270 5
269 309 3
270 271 2
270 310 4
271 272 5
271 311 1
272 273 2
272 312 5
273 274 5
273 313 2
274 275 3
274 314 5
275 276 2
275 315 5
276 277 2
276 316 4
277 278 4
277 317 4
278 279 2
278 318 4
279 280 3
279 319 3
280 320 2
281 282 2
281 321 3
282 283 5
282 322 4
283 284 3
283 323 2
284 285 5
284 324 1
285 286 4
285 325 5
286 287 1
286 326 5
287 288 5
287 327 3
288 289 2
288 328 1
289 290 5
289 329 3
290 291 5
290 330 4
291 292 3
291 331 2
292 293 4
292 332 2
293 294 5
293 333 3
294 295 2
294 334 5
295 296 2
295 335 3
296 297 2
296 336 1
297 298 2
297 337 4
298 299 1
298 338 4
299 300 1
299 339 2
300 301 1
300 340 4
301 302 1
301 341 2
302 303 5
302 342 3
303 304 2
303 343 4
304 305 1
304 344 4
305 306 3
305 345 2
306 307 3
306 346 2
307 308 5
307 347 4
308 309 5
308 348 1
309 310 2
309 349 2
310 311 2
310 350 1
311 312 1
311 351 1
312 313 2
312 352 2
313 314 3
313 353 4
314 315 1
314 354 1
315 316 2
315 355 2
316 317 5
316 356 3
317 318 1
317 357 5
318 319 3
318 358 4
319 320 3
319 359 2
320 360 4
321 322 3
321 361 5
322 323 3
322 362 5
323 324 2
323 363 4
324 325 4
324 364 2
325 326 4
325 365 1
326 327 2
326 366 4
327 328 5
327 367 5
328 329 3
328 368 3
329 330 5
329 369 1
330 331 1
330 370 1
331 332 4
331 371 4
332 333 4
332 372 5
333 334 5
333 373 5
334 335 2
334 374 2
335 336 3
335 375 2
336 337 4
336 376 3
337 338 4
337 377 1
338 339 3
338 378 1
339 340 3
339 379 4
340 341 2
340 380 5
341 342 4
341 381 2
342 343 1
342 382 4
343 344 1
343 383 5
344 345 3
344 384 2
345 346 2
345 385 4
346 347 5
346 386 2
347 348 5
347 387 4
348 349 5
348 388 4
349 350 3
349 389 4
350 351 2
350 390 3
351 352 2
351 391 2
352 353 2
352 392 5
353 354 2
353 393 4
354 355 3
354 394 4
355 356 3
355 395 3
356 357 5
356 396 2
357 358 1
357 397 2
358 359 1
358 398 2
359 360 4
359 399 2
360 400 2
361 362 5
361 401 2
362 363 3
362 402 1
363 364 2
363 403 2
364 365 1
364 404 2
365 366 1
365 405 4
366 367 1
366 406 4
367 368 1
367 407 4
368 369 5
368 408 2
369 370 3
369 409 3
370 371 2
370 410 5
371 372 3
371 411 4
372 373 1
372 412 2
373 374 5
373 413 4
374 375 3
374 414 4
375 376 1
375 415 1
376 377 5
376 416 3
377 378 3
377 417 1
378 379 2
378 418 2
379 380 3
379 419 3
380 381 4
380 420 5
381 382 3
381 421 3
382 383 5
382 422 2
383 384 4
383 423 5
384 385 2
384 424 1
385 386 1
385 425 4
386 387 3
386 426 5
387 388 4
387 427 4
388 389 4
388 428 3
389 390 3
389 429 5
390 391 5
390 430 1
391 392 2
391 431 1
392 393 3
392 432 5
393 394 4
393 433 5
394 395 3
394 434 1
395 396 1
395 435 2
396 397 4
396 436 3
397 398 4
397 437 5
398 399 5
398 438 3
399 400 3
399 439 3
400 440 4
401 402 1
401 441 2
402 403 5
402 442 3
403 404 3
403 443 3
404 405 5
404 444 1
405 406 2
405 445 1
406 407 2
406 446 5
407 408 1
407 447 1
408 409 1
408 448 5
409 410 3
409 449 2
410 411 1
410 450 5
411 412 5
411 451 4
412 413 1
412 452 3
413 414 4
413 453 4
414 415 3
414 454 3
415 416 3
415 455 4
416 417 2
416 456 3
417 418 3
417 457 2
418 419 4
418 458 4
419 420 5
419 459 4
420 421 1
420 460 5
421 422 4
421 461 1
422 423 4
422 462 1
423 424 1
423 463 5
424 425 4
424 464 5
425 426 4
425 465 1
426 427 2
426 466 4
427 428 2
427 467 2
428 429 4
428 468 2
429 430 5
429 469 2
430 431 3
430 470 2
431 432 4
431 471 2
432 433 1
432 472 5
433 434 2
433 473 2
434 435 4
434 474 2
435 436 4
435 475 2
436 437 4
436 476 1
437 438 1
437 477 1
438 439 5
438 478 4
439 440 3
439 479 1
440 480 2
441 442 5
441 481 5
442 443 1
442 482 5
443 444 5
443 483 3
444 445 3
444 484 2
445 446 5
445 485 4
446 447 4
446 486 1
447 448 3
447 487 3
448 449 1
448 488 3
449 450 1
449 489 2
450 451 5
450 490 1
451 452 4
451 491 5
452 453 4
452 492 5
453 454 2
453 493 5
454 455 5
454 494 3
455 456 4
455 495 3
456 457 3
456 496 4
457 458 2
457 497 1
458 459 2
458 498 3
459 460 5
459 499 1
460 461 5
460 500 1
461 462 3
461 501 1
462 463 3
462 502 1
463 464 3
463 503 1
464 465 1
464 504 4
465 466 1
465 505 3
466 467 5
466 506 2
467 468 5
467 507 4
468 469 2
468 508 4
469 470 2
469 509 1
470 471 1
470 510 2
471 472 1
471 511 1
472 473 2
472 512 5
473 474 1
473 513 4
474 475 4
474 514 3
475 476 1
475 515 4
476 477 1
476 516 2
477 478 5
477 517 1
478 479 2
478 518 4
479 480 5
479 519 4
480 520 2
481 482 4
481 521 4
482 483 4
482 522 2
483 484 4
483 523 1
484 485 5
484 524 3
485 486 2
485 525 2
486 487 5
486 526 3
487 488 3
487 527 1
488 489 5
488 528 2
489 490 3
489 529 4
490 491 1
490 530 5
491 492 3
491 531 4
492 493 1
492 532 4
493 494 5
493 533 2
494 495 2
494 534 4
495 496 3
495 535 5
496 497 1
496 536 4
497 498 2
497 537 1
498 499 1
498 538 5
499 500 5
499 539 1
500 501 4
500 540 4
501 502 4
501 541 3
502 503 1
502 542 5
503 504 3
503 543 1
504 505 3
504 544 1
505 506 2
505 545 2
506 507 2
506 546 4
507 508 3
507 547 2
508 509 5
508 548 4
509 510 5
509 549 3
510 511 1
510 550 3
511 512 1
511 551 4
512 513 3
512 552 3
513 514 1
513 553 2
514 515 5
514 554 2
515 516 2
515 555 4
516 517 1
516 556 3
517 518 5
517 557 1
518 519 3
518 558 1
519 520 1
519 559 4
520 560 5
521 522 2
521 561 1
522 523 1
522 562 5
523 524 4
523 563 5
524 525 2
524 564 5
525 526 1
525 565 3
526 527 3
526 566 2
527 528 3
527 567 1
528 529 4
528 568 2
529 530 1
529 569 2
530 531 5
530 570 4
531 532 1
531 571 1
532 533 5
532 572 3
533 534 3
533 573 4
534 535 2
534 574 5
535 536 5
535 575 1
536 537 2
536 576 4
537 538 4
537 577 1
538 539 5
538 578 3
539 540 4
539 579 1
540 541 3
540 580 4
541 542 5
541 581 2
542 543 2
542 582 5
543 544 2
543 583 1
544 545 3
544 584 5
545 546 2
545 585 2
546 547 4
546 586 3
547 548 5
547 587 3
548 549 1
548 588 2
549 550 5
549 589 1
550 551 5
550 590 2
551 552 5
551 591 4
552 553 4
552 592 4
553 554 3
553 593 5
554 555 4
554 594 5
555 556 5
555 595 3
556 557 4
556 596 5
557 558 3
557 597 2
558 559 4
558 598 1
559 560 4
559 599 3
560 600 2
561 562 1
561 601 4
562 563 3
562 602 3
563 564 5
563 603 1
564 565 3
564 604 5
565 566 5
565 605 5
566 567 2
566 606 3
567 568 2
567 607 1
568 569 4
568 608 1
569 570 4
569 609 5
570 571 3
570 610 3
571 572 1
571 611 5
572 573 3
572 612 1
573 574 5
573 613 2
574 575 2
574 614 1
575 576 2
575 615 5
576 577 2
576 616 4
577 578 5
577 617 3
578 579 2
578 618 4
579 580 4
579 619 3
580 581 4
580 620 3
581 582 4
581 621 5
582 583 4
582 622 3
583 584 1
583 623 5
584 585 3
584 624 5
585 586 1
585 625 2
586 587 3
586 626 2
587 588 3
587 627 3
588 589 5
588 628 3
589 590 2
589 629 2
590 591 2
590 630 1
591 592 4
591 631 1
592 593 1
592 632 2
593 594 2
593 633 5
594 595 1
594 634 1
595 596 3
595 635 4
596 597 5
596 636 2
597 598 1
597 637 3
598 599 4
598 638 1
599 600 1
599 639 1
600 640 4
601 602 5
601 641 1
602 603 1
602 642 5
603 604 5
603 643 5
604 605 3
604 644 3
605 606 4
605 645 5
606 607 5
606 646 2
607 608 1
607 647 4
608 609 2
608 648 4
609 610 4
609 649 2
610 611 2
610 650 1
611 612 2
611 651 4
612 613 2
612 652 1
613 614 3
613 653 1
614 615 1
614 654 1
615 616 4
615 655 2
616 617 4
616 656 1
617 618 1
617 657 4
618 619 5
618 658 3
619 620 3
619 659 1
620 621 2
620 660 2
621 622 2
621 661 5
622 623 3
622 662 4
623 624 4
623 663 3
624 625 5
624 664 4
625 626 5
625 665 3
626 627 5
626 666 4
627 628 2
627 667 5
628 629 3
628 668 2
629 630 2
629 669 1
630 631 3
630 670 3
631 632 5
631 671 5
632 633 1
632 672 3
633 634 3
633 673 4
634 635 1
634 674 4
635 636 1
635 675 2
636 637 2
636 676 3
637 638 3
637 677 1
638 639 5
638 678 2
639 640 5
639 679 4
640 680 2
641 642 2
641 681 1
642 643 3
642 682 1
643 644 2
643 683 1
644 645 4
644 684 1
645 646 4
645 685 5
646 647 1
646 686 5
647 648 4
647 687 1
648 649 4
648 688 4
649 650 2
649 689 4
650 651 5
650 690 1
651 652 5
651 691 2
652 653 1
652 692 1
653 654 1
653 693 5
654 655 3
654 694 1
655 656 1
655 695 2
656 657 4
656 696 3
657 658 5
657 697 3
658 659 2
658 698 3
659 660 2
659 699 4
660 661 4
660 700 5
661 662 1
661 701 3
662 663 1
662 702 3
663 664 2
663 703 3
664 665 2
664 704 4
665 666 2
665 705 4
666 667 1
666 706 4
667 668 4
667 707 4
668 669 2
668 708 3
669 670 5
669 709 4
670 671 5
670 710 4
671 672 1
671 711 5
672 673 3
672 712 4
673 674 3
673 713 5
674 675 1
674 714 2
675 676 4
675 715 3
676 677 1
676 716 2
677 678 3
677 717 3
678 679 2
678 718 4
679 680 4
679 719 5
680 720 5
681 682 1
681 721 1
682 683 1
682 722 3
683 684 5
683 723 2
684 685 1
684 724 5
685 686 2
685 725 4
686 687 4
686 726 4
687 688 5
687 727 2
688 689 5
688 728 4
689 690 5
689 729 2
690 691 5
690 730 1
691 692 3
691 731 1
692 693 3
692 732 4
693 694 5
693 733 5
694 695 5
694 734 4
695 696 2
695 735 1
696 697 3
696 736 4
697 698 4
697 737 5
698 699 5
698 738 4
699 700 4
699 739 2
700 701 4
700 740 3
701 702 4
701 741 4
702 703 1
702 742 2
703 704 5
703 743 4
704 705 4
704 744 2
705 706 4
705 745 1
706 707 3
706 746 4
707 708 5
707 747 1
708 709 4
708 748 4
709 710 2
709 749 4
710 711 1
710 750 3
711 712 2
711 751 2
712 713 5
712 752 1
713 714 5
713 753 2
714 715 4
714 754 1
715 716 1
715 755 1
716 717 3
716 756 5
717 718 3
717 757 3
718 719 5
718 758 2
719 720 1
719 759 3
720 760 1
721 722 3
721 761 5
722 723 1
722 762 2
723 724 3
723 763 3
724 725 4
724 764 3
725 726 3
725 765 3
726 727 1
726 766 1
727 728 1
727 767 5
728 729 3
728 768 2
729 730 2
729 769 3
730 731 2
730 770 2
731 732 4
731 771 1
732 733 1
732 772 3
733 734 2
733 773 3
734 735 1
734 774 2
735 736 1
735 775 2
736 737 5
736 776 5
737 738 2
737 777 2
738 739 2
738 778 3
739 740 3
739 779 2
740 741 5
740 780 5
741 742 1
741 781 5
742 743 1
742 782 5
743 744 3
743 783 1
744 745 3
744 784 5
745 746 1
745 785 4
746 747 1
746 786 4
747 748 2
747 787 4
748 749 3
748 788 4
749 750 4
749 789 3
750 751 3
750 790 2
751 752 4
751 791 1
752 753 5
752 792 5
753 754 5
753 793 2
754 755 4
754 794 5
755 756 1
755 795 2
756 757 2
756 796 5
757 758 2
757 797 5
758 759 1
758 798 3
759 760 3
759 799 3
760 800 5
761 762 2
761 801 3
762 763 2
762 802 2
763 764 3
763 803 1
764 765 3
764 804 1
765 766 4
765 805 3
766 767 5
766 806 3
767 768 4
767 807 5
768 769 5
768 808 2
769 770 2
769 809 5
770 771 2
770 810 5
771 772 2
771 811 5
772 773 5
772 812 4
773 774 2
773 813 2
774 775 5
774 814 1
775 776 5
775 815 3
776 777 1
776 816 1
777 778 2
777 817 4
778 779 2
778 818 3
779 780 2
779 819 5
780 781 3
780 820 1
781 782 5
781 821 2
782 783 3
782 822 3
783 784 2
783 823 4
784 785 1
784 824 2
785 786 2
785 825 5
786 787 1
786 826 5
787 788 3
787 827 1
788 789 5
788 828 1
789 790 3
789 829 3
790 791 1
790 830 3
791 792 2
791 831 2
792 793 2
792 832 5
793 794 5
793 833 3
794 795 4
794 834 1
795 796 5
795 835 4
796 797 5
796 836 3
797 798 5
797 837 5
798 799 2
798 838 5
799 800 1
799 839 2
800 840 4
801 802 3
801 841 4
802 803 5
802 842 5
803 804 1
803 843 2
804 805 1
804 844 4
805 806 4
805 845 2
806 807 2
806 846 2
807 808 4
807 847 1
808 809 4
808 848 3
809 810 1
809 849 4
810 811 4
810 850 2
811 812 4
811 851 5
812 813 3
812 852 2
813 814 2
813 853 3
814 815 5
814 854 5
815 816 4
815 855 2
816 817 2
816 856 1
817 818 5
817 857 3
818 819 3
818 858 3
819 820 4
819 859 3
820 821 3
820 860 5
821 822 2
821 861 4
822 823 1
822 862 5
823 824 4
823 863 5
824 825 2
824 864 3
825 826 3
825 865 2
826 827 5
826 866 1
827 828 2
827 867 3
828 829 5
828 868 4
829 830 4
829 869 1
830 831 4
830 870 5
831 832 3
831 871 5
832 833 2
832 872 4
833 834 3
833 873 5
834 835 3
834 874 1
835 836 3
835 875 5
836 837 5
836 876 1
837 838 3
837 877 3
838 839 1
838 878 3
839 840 4
839 879 3
840 880 2
841 842 3
841 881 2
842 843 1
842 882 4
843 844 4
843 883 4
844 845 1
844 884 5
845 846 3
845 885 4
846 847 2
846 886 5
847 848 4
847 887 3
848 849 1
848 888 1
849 850 3
849 889 2
850 851 1
850 890 5
851 852 3
851 891 5
852 853 5
852 892 3
853 854 5
853 893 5
854 855 3
854 894 1
855 856 1
855 895 5
856 857 1
856 896 4
857 858 3
857 897 4
858 859 4
858 898 1
859 860 1
859 899 5
860 861 3
860 900 5
861 862 3
861 901 1
862 863 4
862 902 1
863 864 4
863 903 5
864 865 3
864 904 1
865 866 1
865 905 2
866 867 3
866 906 5
867 868 5
867 907 4
868 869 2
868 908 4
869 870 2
869 909 1
870 871 4
870 910 1
871 872 2
871 911 1
872 873 5
872 912 5
873 874 5
873 913 3
874 875 5
874 914 1
875 876 5
875 915 2
876 877 4
876 916 1
877 878 1
877 917 4
878 879 4
878 918 5
879 880 3
879 919 5
880 920 4
881 882 4
881 921 4
882 883 1
882 922 2
883 884 2
883 923 3
884 885 4
884 924 1
885 886 2
885 925 1
886 887 4
886 926 3
887 888 1
887 927 2
888 889 1
888 928 3
889 890 1
889 929 2
890 891 5
890 930 5
891 892 5
891 931 2
892 893 1
892 932 1
893 894 3
893 933 3
894 895 4
894 934 5
895 896 5
895 935 2
896 897 1
896 936 1
897 898 2
897 937 3
898 899 3
898 938 3
899 900 2
899 939 1
900 901 1
900 940 3
901 902 5
901 941 3
902 903 1
902 942 3
903 904 5
903 943 2
904 905 1
904 944 1
905 906 3
905 945 3
906 907 5
906 946 4
907 908 2
907 947 2
908 909 1
908 948 4
909 910 5
909 949 1
910 911 5
910 950 1
911 912 5
911 951 1
912 913 2
912 952 4
913 914 2
913 953 4
914 915 4
914 954 1
915 916 2
915 955 5
916 917 5
916 956 3
917 918 4
917 957 3
918 919 3
918 958 3
919 920 5
919 959 4
920 960 2
921 922 1
921 961 4
922 923 1
922 962 5
923 924 4
923 963 3
924 925 1
924 964 5
925 926 2
925 965 5
926 927 5
926 966 2
927 928 5
927 967 4
928 929 2
928 968 5
929 930 2
929 969 4
930 931 1
930 970 5
931 932 3
931 971 5
932 933 2
932 972 4
933 934 4
933 973 2
934 935 3
934 974 1
935 936 2
935 975 2
936 937 3
936 976 4
937 938 3
937 977 3
938 939 2
938 978 5
939 940 2
939 979 5
940 941 5
940 980 3
941 942 3
941 981 1
942 943 3
942 982 1
943 944 2
943 983 1
944 945 1
944 984 1
945 946 2
945 985 4
946 947 4
946 986 1
947 948 4
947 987 4
948 949 2
948 988 5
949 950 4
949 989 5
950 951 3
950 990 3
951 952 1
951 991 5
952 953 3
952 992 4
953 954 5
953 993 5
954 955 2
954 994 5
955 956 5
955 995 3
956 957 3
956 996 5
957 958 3
957 997 3
958 959 2
958 998 1
959 960 2
959 999 5
960 1000 5
961 962 1
961 1001 4
962 963 4
962 1002 4
963 964 3
963 1003 1
964 965 1
964 1004 2
965 966 5
965 1005 5
966 967 4
966 1006 2
967 968 4
967 1007 2
968 969 3
968 1008 2
969 970 1
969 1009 3
970 971 5
970 1010 4
971 972 4
971 1011 1
972 973 1
972 1012 5
973 974 3
973 1013 4
974 975 4
974 1014 3
975 976 4
975 1015 1
976 977 5
976 1016 1
977 978 5
977 1017 5
978 979 5
978 1018 2
979 980 1
979 1019 5
980 981 4
980 1020 5
981 982 4
981 1021 5
982 983 3
982 1022 3
983 984 4
983 1023 4
984 985 1
984 1024 5
985 986 1
985 1025 3
986 987 2
986 1026 3
987 988 3
987 1027 2
988 989 4
988 1028 5
989 990 1
989 1029 2
990 991 5
990 1030 2
991 992 2
991 1031 5
992 993 3
992 1032 2
993 994 5
993 1033 3
994 995 2
994 1034 3
995 996 2
995 1035 2
996 997 5
996 1036 3
997 998 2
997 1037 2
998 999 4
998 1038 5
999 1000 4
999 1039 5
1000 1040 2
1001 1002 2
1001 1041 1
1002 1003 4
1002 1042 2
1003 1004 4
1003 1043 4
1004 1005 2
1004 1044 3
1005 1006 2
1005 1045 5
1006 1007 2
1006 1046 4
1007 1008 2
1007 1047 5
1008 1009 5
1008 1048 1
1009 1010 1
1009 1049 2
1010 1011 4
1010 1050 4
1011 1012 2
1011 1051 1
1012 1013 3
1012 1052 2
1013 1014 4
1013 1053 5
1014 1015 1
1014 1054 1
1015 1016 1
1015 1055 5
1016 1017 1
1016 1056 3
1017 1018 3
1017 1057 3
1018 1019 1
1018 1058 3
1019 1020 1
1019 1059 5
1020 1021 3
1020 1060 1
1021 1022 2
1021 1061 3
1022 1023 1
1022 1062 1
1023 1024 1
1023 1063 3
1024 1025 2
1024 1064 5
1025 1026 1
1025 1065 2
1026 1027 4
1026 1066 4
1027 1028 1
1027 1067 2
1028 1029 5
1028 1068 3
1029 1030 3
1029 1069 1
1030 1031 2
1030 1070 1
1031 1032 3
1031 1071 3
1032 1033 1
1032 1072 2
1033 1034 3
1033 1073 5
1034 1035 1
1034 1074 1
1035 1036 2
1035 1075 2
1036 1037 5
1036 1076 2
1037 1038 1
1037 1077 1
1038 1039 4
1038 1078 1
1039 1040 1
1039 1079 5
1040 1080 2
1041 1042 2
1041 1081 1
1042 1043 1
1042 1082 3
1043 1044 1
1043 1083 5
1044 1045 4
1044 1084 1
1045 1046 2
1045 1085 2
1046 1047 4
1046 1086 1
1047 1048 1
1047 1087 2
1048 1049 5
1048 1088 4
1049 1050 4
1049 1089 5
1050 1051 5
1050 1090 3
1051 1052 4
1051 1091 2
1052 1053 1
1052 1092 3
1053 1054 3
1053 1093 4
1054 1055 2
1054 1094 5
1055 1056 3
1055 1095 4
1056 1057 5
1056 1096 1
1057 1058 3
1057 1097 1
1058 1059 3
1058 1098 4
1059 1060 5
1059 1099 4
1060 1061 1
1060 1100 3
1061 1062 2
1061 1101 4
1062 1063 3
1062 1102 2
1063 1064 4
1063 1103 3
1064 1065 3
1064 1104 3
1065 1066 5
1065 1105 1
1066 1067 2
1066 1106 4
1067 1068 3
1067 1107 2
1068 1069 2
1068 1108 3
1069 1070 2
1069 1109 5
1070 1071 2
1070 1110 4
1071 1072 1
1071 1111 1
1072 1073 4
1072 1112 1
1073 1074 2
1073 1113 5
1074 1075 5
1074 1114 3
1075 1076 3
1075 1115 2
1076 1077 1
1076 1116 5
1077 1078 1
1077 1117 3
1078 1079 3
1078 1118 1
1079 1080 3
1079 1119 1
1080 1120 1
1081 1082 5
1081 1121 5
1082 1083 2
1082 1122 1
1083 1084 5
1083 1123 1
1084 1085 5
1084 1124 3
1085 1086 1
1085 1125 4
1086 1087 3
1086 1126 2
1087 1088 3
1087 1127 4
1088 1089 4
1088 1128 4
1089 1090 2
1089 1129 2
1090 1091 4
1090 1130 3
1091 1092 2
1091 1131 5
1092 1093 3
1092 1132 3
1093 1094 2
1093 1133 4
1094 1095 5
1094 1134 5
1095 1096 3
1095 1135 5
1096 1097 1
1096 1136 2
1097 1098 1
1097 1137 4
1098 1099 1
1098 1138 2
1099 1100 3
1099 1139 2
1100 1101 4
1100 1140 4
1101 1102 2
1101 1141 3
1102 1103 2
1102 1142 1
1103 1104 5
1103 1143 4
1104 1105 5
1104 1144 4
1105 1106 1
1105 1145 5
1106 1107 2
1106 1146 1
1107 1108 4
1107 1147 5
1108 1109 2
1108 1148 3
1109 1110 3
1109 1149 1
1110 1111 1
1110 1150 1
1111 1112 3
1111 1151 3
1112 1113 1
1112 1152 2
1113 1114 1
1113 1153 2
1114 1115 3
1114 1154 4
1115 1116 5
1115 1155 4
1116 1117 5
1116 1156 2
1117 1118 2
1117 1157 5
1118 1119 1
1118 1158 5
1119 1120 2
1119 1159 5
1120 1160 4
1121 1122 1
1121 1161 4
1122 1123 2
1122 1162 1
1123 1124 2
1123 1163 5
1124 1125 4
1124 1164 3
1125 1126 2
1125 1165 3
1126 1127 4
1126 1166 3
1127 1128 2
1127 1167 1
1128 1129 5
1128 1168 3
1129 1130 3
1129 1169 1
1130 1131 1
1130 1170 3
1131 1132 5
1131 1171 4
1132 1133 4
1132 1172 1
1133 1134 3
1133 1173 4
1134 1135 1
1134 1174 3
1135 1136 2
1135 1175 1
1136 1137 4
1136 1176 5
1137 1138 3
1137 1177 3
1138 1139 3
1138 1178 1
1139 1140 1
1139 1179 5
1140 1141 2
1140 1180 5
1141 1142 2
1141 1181 1
1142 1143 4
1142 1182 5
1143 1144 1
1143 1183 4
1144 1145 4
1144 1184 1
1145 1146 4
1145 1185 1
1146 1147 2
1146 1186 1
1147 1148 5
1147 1187 2
1148 1149 3
1148 1188 5
1149 1150 1
1149 1189 5
1150 1151 5
1150 1190 1
1151 1152 4
1151 1191 4
1152 1153 1
1152 1192 1
1153 1154 3
1153 1193 3
1154 1155 3
1154 1194 1
1155 1156 2
1155 1195 2
1156 1157 3
1156 1196 5
1157 1158 2
1157 1197 2
1158 1159 2
1158 1198 3
1159 1160 3
1159 1199 2
1160 1200 3
1161 1162 4
1161 1201 4
1162 1163 2
1162 1202 5
1163 1164 3
1163 1203 2
1164 1165 5
1164 1204 2
1165 1166 3
1165 1205 4
1166 1167 2
1166 1206 3
1167 1168 5
1167 1207 3
1168 1169 1
1168 1208 3
1169 1170 2
1169 1209 1
1170 1171 5
1170 1210 5
1171 1172 3
1171 1211 5
1172 1173 2
1172 1212 4
1173 1174 4
1173 1213 3
1174 1175 2
1174 1214 5
1175 1176 4
1175 1215 5
1176 1177 1
1176 1216 3
1177 1178 3
1177 1217 5
1178 1179 4
1178 1218 2
1179 1180 2
1179 1219 1
1180 1181 5
1180 1220 3
1181 1182 4
1181 1221 2
1182 1183 1
1182 1222 4
1183 1184 1
1183 1223 2
1184 1185 3
1184 1224 5
1185 1186 2
1185 1225 1
1186 1187 1
1186 1226 5
1187 1188 5
1187 1227 2
1188 1189 4
1188 1228 3
1189 1190 4
1189 1229 1
1190 1191 4
1190 1230 1
1191 1192 3
1191 1231 4
1192 1193 3
1192 1232 5
1193 1194 3
1193 1233 2
1194 1195 5
1194 1234 2
1195 1196 2
1195 1235 4
1196 1197 1
1196 1236 5
1197 1198 5
1197 1237 1
1198 1199 5
1198 1238 2
1199 1200 1
1199 1239 4
1200 1240 5
1201 1202 5
1201 1241 1
1202 1203 1
1202 1242 5
1203 1204 5
1203 1243 5
1204 1205 5
1204 1244 3
1205 1206 4
1205 1245 2
1206 1207 5
1206 1246 3
1207 1208 5
1207 1247 5
1208 1209 5
1208 1248 4
1209 1210 2
1209 1249 1
1210 1211 3
1210 1250 1
1211 1212 2
1211 1251 3
1212 1213 2
1212 1252 4
1213 1214 2
1213 1253 2
1214 1215 3
1214 1254 1
1215 1216 4
1215 1255 4
1216 1217 2
1216 1256 2
1217 1218 1
1217 1257 3
1218 1219 2
1218 1258 4
1219 1220 4
1219 1259 4
1220 1221 5
1220 1260 5
1221 1222 4
1221 1261 2
1222 1223 5
1222 1262 4
1223 1224 3
1223 1263 4
1224 1225 2
1224 1264 1
1225 1226 2
1225 1265 5
1226 1227 1
1226 1266 2
1227 1228 5
1227 1267 5
1228 1229 5
1228 1268 2
1229 1230 3
1229 1269 2
1230 1231 1
1230 1270 2
1231 1232 5
1231 1271 1
1232 1233 2
1232 1272 1
1233 1234 3
1233 1273 4
1234 1235 3
1234 1274 4
1235 1236 4
1235 1275 4
1236 1237 2
1236 1276 4
1237 1238 4
1237 1277 4
1238 1239 1
1238 1278 1
1239 1240 1
1239 1279 3
1240 1280 1
1241 1242 4
1241 1281 2
1242 1243 1
1242 1282 2
1243 1244 2
1243 1283 4
1244 1245 3
1244 1284 5
1245 1246 1
1245 1285 4
1246 1247 5
1246 1286 5
1247 1248 4
1247 1287 5
1248 1249 2
1248 1288 5
1249 1250 2
1249 1289 3
1250 1251 5
1250 1290 3
1251 1252 3
1251 1291 5
1252 1253 2
1252 1292 2
1253 1254 1
1253 1293 4
1254 1255 1
1254 1294 5
1255 1256 2
1255 1295 4
1256 1257 2
1256 1296 4
1257 1258 1
1257 1297 5
1258 1259 5
1258 1298 2
1259 1260 4
1259 1299 4
1260 1261 3
1260 1300 5
1261 1262 4
1261 1301 1
1262 1263 5
1262 1302 4
1263 1264 1
1263 1303 4
1264 1265 5
1264 1304 1
1265 1266 3
1265 1305 1
1266 1267 1
1266 1306 4
1267 1268 4
1267 1307 3
1268 1269 4
1268 1308 3
1269 1270 4
1269 1309 4
1270 1271 4
1270 1310 5
1271 1272 5
1271 1311 4
1272 1273 3
1272 1312 1
1273 1274 1
1273 1313 4
1274 1275 4
1274 1314 2
1275 1276 2
1275 1315 3
1276 1277 4
1276 1316 3
1277 1278 2
1277 1317 2
1278 1279 4
1278 1318 4
1279 1280 5
1279 1319 5
1280 1320 4
1281 1282 1
1281 1321 2
1282 1283 3
1282 1322 4
1283 1284 1
1283 1323 2
1284 1285 5
1284 1324 5
1285 1286 5
1285 1325 4
1286 1287 1
1286 1326 5
1287 1288 5
1287 1327 4
1288 1289 2
1288 1328 2
1289 1290 2
1289 1329 5
1290 1291 1
1290 1330 5
1291 1292 1
1291 1331 5
1292 1293 1
1292 1332 2
1293 1294 4
1293 1333 1
1294 1295 1
1294 1334 4
1295 1296 1
1295 1335 5
1296 1297 2
1296 1336 5
1297 1298 5
1297 1337 1
1298 1299 5
1298 1338 4
1299 1300 5
1299 1339 4
1300 1301 5
1300 1340 2
1301 1302 3
1301 1341 4
1302 1303 3
1302 1342 2
1303 1304 1
1303 1343 2
1304 1305 3
1304 1344 1
1305 1306 4
1305 1345 2
1306 1307 5
1306 1346 3
1307 1308 2
1307 1347 2
1308 1309 2
1308 1348 4
1309 1310 2
1309 1349 3
1310 1311 3
1310 1350 4
1311 1312 2
1311 1351 5
1312 1313 3
1312 1352 4
1313 1314 3
1313 1353 2
1314 1315 4
1314 1354 2
1315 1316 4
1315 1355 5
1316 1317 4
1316 1356 3
1317 1318 4
1317 1357 2
1318 1319 3
1318 1358 4
1319 1320 3
1319 1359 2
1320 1360 2
1321 1322 2
1321 1361 2
1322 1323 3
1322 1362 3
1323 1324 2
1323 1363 3
1324 1325 2
1324 1364 1
1325 1326 5
1325 1365 5
1326 1327 2
1326 1366 1
1327 1328 5
1327 1367 4
1328 1329 3
1328 1368 4
1329 1330 2
1329 1369 5
1330 1331 5
1330 1370 5
1331 1332 1
1331 1371 3
1332 1333 1
1332 1372 3
1333 1334 1
1333 1373 3
1334 1335 2
1334 1374 2
1335 1336 1
1335 1375 3
1336 1337 5
1336 1376 3
1337 1338 1
1337 1377 4
1338 1339 3
1338 1378 4
1339 1340 2
1339 1379 2
1340 1341 3
1340 1380 5
1341 1342 4
1341 1381 4
1342 1343 2
1342 1382 2
1343 1344 4
1343 1383 4
1344 1345 5
1344 1384 3
1345 1346 5
1345 1385 3
1346 1347 2
1346 1386 4
1347 1348 3
1347 1387 1
1348 1349 4
1348 1388 3
1349 1350 5
1349 1389 1
1350 1351 3
1350 1390 5
1351 1352 5
1351 1391 4
1352 1353 5
1352 1392 1
1353 1354 3
1353 1393 5
1354 1355 4
1354 1394 2
1355 1356 3
1355 1395 1
1356 1357 2
1356 1396 5
1357 1358 1
1357 1397 3
1358 1359 4
1358 1398 4
1359 1360 1
1359 1399 5
1360 1400 1
1361 1362 3
1361 1401 5
1362 1363 2
1362 1402 1
1363 1364 1
1363 1403 2
1364 1365 1
1364 1404 3
1365 1366 5
1365 1405 4
1366 1367 3
1366 1406 1
1367 1368 4
1367 1407 1
1368 1369 2
1368 1408 3
1369 1370 1
1369 1409 3
1370 1371 4
1370 1410 2
1371 1372 3
1371 1411 5
1372 1373 1
1372 1412 4
1373 1374 3
1373 1413 2
1374 1375 4
1374 1414 3
1375 1376 4
1375 1415 5
1376 1377 1
1376 1416 3
1377 1378 4
1377 1417 3
1378 1379 3
1378 1418 2
1379 1380 2
1379 1419 3
1380 1381 4
1380 1420 2
1381 1382 5
1381 1421 3
1382 1383 1
1382 1422 5
1383 1384 2
1383 1423 3
1384 1385 3
1384 1424 5
1385 1386 2
1385 1425 1
1386 1387 1
1386 1426 2
1387 1388 2
1387 1427 2
1388 1389 2
1388 1428 4
1389 1390 3
1389 1429 5
1390 1391 5
1390 1430 4
1391 1392 3
1391 1431 5
1392 1393 1
1392 1432 3
1393 1394 1
1393 1433 1
1394 1395 1
1394 1434 2
1395 1396 4
1395 1435 2
1396 1397 5
1396 1436 5
1397 1398 4
1397 1437 3
1398 1399 5
1398 1438 4
1399 1400 1
1399 1439 5
1400 1440 1
1401 1402 4
1401 1441 3
1402 1403 1
1402 1442 5
1403 1404 2
1403 1443 5
1404 1405 2
1404 1444 3
1405 1406 3
1405 1445 2
1406 1407 3
1406 1446 5
1407 1408 2
1407 1447 1
1408 1409 4
1408 1448 5
1409 1410 5
1409 1449 3
1410 1411 5
1410 1450 4
1411 1412 3
1411 1451 3
1412 1413 2
1412 1452 1
1413 1414 4
1413 1453 5
1414 1415 5
1414 1454 2
1415 1416 4
1415 1455 4
1416 1417 4
1416 1456 4
1417 1418 5
1417 1457 4
1418 1419 1
1418 1458 3
1419 1420 1
1419 1459 1
1420 1421 3
1420 1460 2
1421 1422 3
1421 1461 4
1422 1423 5
1422 1462 5
1423 1424 1
1423 1463 5
1424 1425 3
1424 1464 3
1425 1426 4
1425 1465 3
1426 1427 2
1426 1466 4
1427 1428 3
1427 1467 4
1428 1429 4
1428 1468 1
1429 1430 1
1429 1469 1
1430 1431 1
1430 1470 1
1431 1432 2
1431 1471 1
1432 1433 3
1432 1472 4
1433 1434 1
1433 1473 2
1434 1435 1
1434 1474 2
1435 1436 3
1435 1475 2
1436 1437 3
1436 1476 4
1437 1438 3
1437 1477 4
1438 1439 3
1438 1478 1
1439 1440 3
1439 1479 5
1440 1480 4
1441 1442 4
1441 1481 1
1442 1443 1
1442 1482 3
1443 1444 5
1443 1483 2
1444 1445 1
1444 1484 2
1445 1446 5
1445 1485 2
1446 1447 5
1446 1486 4
1447 1448 3
1447 1487 3
1448 1449 3
1448 1488 4
1449 1450 2
1449 1489 4
1450 1451 1
1450 1490 3
1451 1452 1
1451 1491 1
1452 1453 5
1452 1492 4
1453 1454 4
1453 1493 5
1454 1455 2
1454 1494 4
1455 1456 3
1455 1495 5
1456 1457 2
1456 1496 1
1457 1458 1
1457 1497 5
1458 1459 2
1458 1498 2
1459 1460 4
1459 1499 5
1460 1461 3
1460 1500 3
1461 1462 2
1461 1501 5
1462 1463 2
1462 1502 5
1463 1464 1
1463 1503 3
1464 1465 5
1464 1504 5
1465 1466 2
1465 1505 1
1466 1467 1
1466 1506 2
1467 1468 5
1467 1507 4
1468 1469 4
1468 1508 5
1469 1470 2
1469 1509 5
1470 1471 2
1470 1510 3
1471 1472 5
1471 1511 5
1472 1473 1
1472 1512 5
1473 1474 2
1473 1513 4
1474 1475 5
1474 1514 3
1475 1476 2
1475 1515 2
1476 1477 3
1476 1516 5
1477 1478 3
1477 1517 1
1478 1479 1
1478 1518 3
1479 1480 4
1479 1519 1
1480 1520 1
1481 1482 2
1481 1521 2
1482 1483 1
1482 1522 2
1483 1484 2
1483 1523 3
1484 1485 5
1484 1524 5
1485 1486 4
1485 1525 3
1486 1487 1
1486 1526 2
1487 1488 3
1487 1527 5
1488 1489 2
1488 1528 3
1489 1490 3
1489 1529 4
1490 1491 5
1490 1530 4
1491 1492 2
1491 1531 5
1492 1493 3
1492 1532 2
1493 1494 1
1493 1533 4
1494 1495 3
1494 1534 1
1495 1496 4
1495 1535 2
1496 1497 1
1496 1536 2
1497 1498 1
1497 1537 3
1498 1499 4
1498 1538 1
1499 1500 3
1499 1539 4
1500 1501 3
1500 1540 3
1501 1502 3
1501 1541 1
1502 1503 4
1502 1542 2
1503 1504 4
1503 1543 3
1504 1505 3
1504 1544 3
1505 1506 5
1505 1545 5
1506 1507 2
1506 1546 1
1507 1508 5
1507 1547 5
1508 1509 3
1508 1548 4
1509 1510 5
1509 1549 2
1510 1511 4
1510 1550 3
1511 1512 2
1511 1551 4
1512 1513 3
1512 1552 1
1513 1514 5
1513 1553 2
1514 1515 2
1514 1554 3
1515 1516 4
1515 1555 4
1516 1517 4
1516 1556 2
1517 1518 2
1517 1557 4
1518 1519 1
1518 1558 5
1519 1520 5
1519 1559 2
1520 1560 4
1521 1522 4
1521 1561 2
1522 1523 5
1522 1562 5
1523 1524 2
1523 1563 2
1524 1525 2
1524 1564 1
1525 1526 4
1525 1565 3
1526 1527 1
1526 1566 2
1527 1528 5
1527 1567 4
1528 1529 4
1528 1568 4
1529 1530 1
1529 1569 2
1530 1531 2
1530 1570 5
1531 1532 4
1531 1571 2
1532 1533 3
1532 1572 2
1533 1534 4
1533 1573 1
1534 1535 2
1534 1574 5
1535 1536 2
1535 1575 5
1536 1537 3
1536 1576 3
1537 1538 1
1537 1577 4
1538 1539 5
1538 1578 2
1539 1540 1
1539 1579 2
1540 1541 2
1540 1580 1
1541 1542 1
1541 1581 5
1542 1543 5
1542 1582 4
1543 1544 4
1543 1583 1
1544 1545 3
1544 1584 3
1545 1546 2
1545 1585 2
1546 1547 3
1546 1586 5
1547 1548 3
1547 1587 5
1548 1549 3
1548 1588 1
1549 1550 2
1549 1589 3
1550 1551 4
1550 1590 3
1551 1552 5
1551 1591 2
1552 1553 4
1552 1592 5
1553 1554 1
1553 1593 5
1554 1555 4
1554 1594 4
1555 1556 1
1555 1595 5
1556 1557 2
1556 1596 2
1557 1558 3
1557 1597 2
1558 1559 5
1558 1598 5
1559 1560 2
1559 1599 2
1560 1600 3
1561 1562 2
1562 1563 5
1563 1564 5
1564 1565 3
1565 1566 3
1566 1567 1
1567 1568 4
1568 1569 3
1569 1570 4
1570 1571 4
1571 1572 2
1572 1573 3
1573 1574 3
1574 1575 4
1575 1576 5
1576 1577 4
1577 1578 1
1578 1579 3
1579 1580 4
1580 1581 1
1581 1582 3
1582 1583 2
1583 1584 3
1584 1585 4
1585 1586 1
1586 1587 2
1587 1588 5
1588 1589 2
1589 1590 1
1590 1591 2
1591 1592 3
1592 1593 4
1593 1594 3
1594 1595 1
1595 1596 5
1596 1597 2
1597 1598 2
1598 1599 3
1599 1600 5
